Name: TestCompound
PrecursorMZ: 123.045
Formula: C6H5NO
Num Peaks: 3
50.0 23
75.0 45
123.0 100

Name: AnotherCompound
PrecursorMZ: 150.123
Formula: C7H8O
Num Peaks: 2
60.0 10
150.1 80
