Name: Anandamide
MW: 348.261
Formula: C22H37NO2
PrecursorMZ: 348.261
Num Peaks: 4
50.0 23
129.1 177
180.2 234
348.3 999

Name: Cannabidiol
MW: 314.224
Formula: C21H30O2
PrecursorMZ: 314.224
Num Peaks: 4
45.0 50
123.0 200
193.0 325
314.2 900
