COMPOUND_NAME: Anandamide
FORMULA: C22H37NO2
NOMINAL_MASS: 348.261
PRECURSOR_MZ: 348.261
CHARGE: 0
INCHI: 
INCHIKEY: 
SMILES: 
IONMODE: n/a
NAME: Anandamide
NUM PEAKS: 2
50.0	0.12994350282485875
129.1	1.0

COMPOUND_NAME: Cannabidiol
FORMULA: C21H30O2
NOMINAL_MASS: 314.224
PRECURSOR_MZ: 314.224
CHARGE: 0
INCHI: 
INCHIKEY: 
SMILES: 
IONMODE: n/a
NAME: Cannabidiol
NUM PEAKS: 2
45.0	0.25
123.0	1.0

